p tw 89 103
1 2
2 13
3 4
4 5
4 10
5 6
6 7
6 8
7 8
8 9
9 87
10 11
11 12
12 14
12 19
13 24
14 15
15 16
15 17
16 17
17 18
18 87
19 20
20 21
21 22
21 27
22 23
22 25
23 25
24 35
25 26
26 87
27 28
28 29
29 30
29 34
30 31
31 32
32 33
33 87
34 36
35 46
35 89
36 37
37 38
37 41
38 39
39 40
40 87
41 42
42 43
43 44
43 55
44 45
44 48
45 47
46 57
46 68
47 53
48 49
49 50
50 51
51 52
52 53
53 54
54 87
55 56
56 58
57 68
58 59
59 60
60 61
60 72
61 62
62 63
63 64
64 65
65 66
66 67
67 69
68 79
69 70
70 71
71 87
72 73
73 74
74 75
74 81
75 76
76 77
77 78
78 80
79 87
80 87
81 82
82 83
83 84
83 85
84 87
85 86
86 87
87 88
89 3
